(set-logic QF_S)
(set-option :strings-exp true)
(set-option :produce-models true)
(declare-fun sigmaStar_0 () String)
(declare-fun sigmaStar_1 () String)
(declare-fun sigmaStar_4 () String)
(declare-fun sigmaStar_8 () String)
(declare-fun sigmaStar_10 () String)
(declare-fun literal_9 () String)
(declare-fun x_11 () String)
(declare-fun x_12 () String)
(declare-fun literal_13 () String)
(declare-fun x_14 () String)
(declare-fun x_15 () String)
(assert (= literal_9 "\x20"))
(assert (= x_11 (str.++ sigmaStar_4 literal_9)))
(assert (= x_12 (str.++ x_11 sigmaStar_10)))
(assert (= literal_13 "\x20"))
(assert (= x_14 (str.++ x_12 literal_13)))
(assert (= x_15 (str.++ x_14 sigmaStar_8)))
(assert (str.in.re x_15 (re.++ (re.* re.allchar) (re.++ (str.to.re "\x5c\x3c\x53\x43\x52\x49\x50\x54") (re.* re.allchar)))))
(check-sat)
(get-model)
